language Essence 1.3

letting bot_end be
        [1714, 489, 2053, 687, 278, 1949, 319, 1157, 1083, 206, 1707, 279, 517, 1398, 908, 1022, 17, 1523, 815, 1961,
         204, 1727, 1925, 33, 1958, 209, 902, 1402, 1747, 1448, 1234, 1351, 43, 777, 744, 1031, 44, 1863, 1585, 272,
         291, 1217, 721, 303, 1557;
             int(1..45)]
letting bot_start be
        [474, 827, 1739, 1338, 943, 178, 894, 1431, 257, 1423, 288, 1560, 1068, 606, 842, 1163, 1999, 1612, 1333, 104,
         83, 1347, 2055, 1304, 1004, 180, 1528, 804, 1374, 459, 19, 990, 1226, 190, 1134, 8, 1847, 2032, 1767, 1239,
         1328, 1141, 586, 304, 1736;
             int(1..45)]
letting bots be 45
letting buffer_col be 2
letting buffer_row be 2
letting corridor_size be 1
letting n_shelves_col be 16
letting n_shelves_row be 18
letting shelf_col_size be 2
letting shelf_row_size be 1
